job_count = 10 ;
duration = [|22, 15, 4|13, 17, 6|21, 18, 4|23, 18, 2|20, 6, 5|26, 16, 5|16, 3, 7|4, 19, 9|16, 12, 9|29, 11, 1|] ;
machine_count = 3 ;
cost = [|17, 35, 39|17, 23, 34|18, 22, 40|10, 35, 49|18, 20, 47|13, 36, 56|10, 33, 59|16, 27, 52|13, 33, 31|12, 21, 51|] ;
deadline = [22, 22, 22, 22, 22, 22, 22, 22, 22, 22] ;
release = [0, 0, 0, 0, 0, 0, 0, 0, 0, 0] ;
resource = [|2, 2, 2|8, 8, 8|8, 8, 8|9, 9, 9|8, 8, 8|5, 5, 5|7, 7, 7|4, 4, 4|9, 9, 9|4, 4, 4|] ;
capacities = [10, 10, 10] ;
